coords = array2d(1..50, 1..2, [794, 258, 940, 941, 549, 837, 113, 114, 676,
    174, 751, 813, 868, 384, 563, 62, 526, 746, 737, 263, 718, 672,
    731, 515, 135, 825, 142, 487, 802, 254, 185, 70, 334, 886, 18,
    870, 93, 532, 526, 855, 978, 91, 642, 648, 826, 894, 658, 926,
    351, 828, 8, 904, 393, 652, 65, 622, 842, 586, 937, 387, 48, 963,
    302, 272, 757, 668, 27, 408, 120, 428, 52, 317, 450, 62, 28, 822,
    232, 663, 31, 882, 766, 331, 409, 806, 584, 66, 645, 520, 508,
    208, 872, 348, 170, 16, 897, 629, 680, 881, 636, 573]);

n = 50;

